120
[24,25,26,27,28,29,30,31,32,33,34,35,36,37,38,39,40,41,42,43,44,45,46,47,48,49,50,51,52,53,54,55,56,57,58,59,60,61,62,63,64,65,66,67,68,69,70,71,72,73,74,75,76,77,78,79,80,81,82,83,84]
[7,9,16,9,6,10,14,16,12,14,14,19,5,16,16,11,6,11,13,16,7,14,17,7,10,18,12,6,6,17,9,11,10,9,10,9,11,16,22,15,7,11,9,16,14,9,8,13,13,10,6,21,21,18,11,13,14,17,11,14,18]
